NAME          ClpDefau
ROWS
 N  OBJROW
 L  R_300_0
 L  R_300_1
 L  R_300_2
 L  R_300_3
 L  R_300_4
 L  R_300_5
 L  R_300_6
 L  R_300_7
 L  R_300_8
 L  R_300_9
 L  R_300_10
 L  R_300_11
 L  R_300_12
 L  R_300_13
 L  R_300_14
 L  R_300_15
 L  R_300_16
 L  R_300_17
 L  R_300_18
 L  R_300_19
 L  R_300_20
 L  R_300_21
 L  R_300_22
 L  R_300_23
 L  R_300_24
 L  R_300_25
 L  R_300_26
 L  R_300_27
 L  R_300_28
 L  R_300_29
 L  R_300_30
 L  R_300_31
COLUMNS
    x_0       OBJROW     -8.           R_300_0   9.          
    x_0       R_300_1   3.             R_300_2   1.          
    x_0       R_300_3   3.             R_300_4   9.          
    x_0       R_300_5   9.             R_300_6   3.          
    x_0       R_300_8   7.             R_300_9   6.          
    x_0       R_300_10  6.             R_300_11  8.          
    x_0       R_300_12  7.             R_300_13  8.          
    x_0       R_300_14  4.             R_300_15  8.          
    x_0       R_300_16  6.             R_300_17  8.          
    x_0       R_300_19  10.            R_300_20  9.          
    x_0       R_300_21  8.             R_300_22  6.          
    x_0       R_300_26  8.             R_300_27  9.          
    x_0       R_300_28  9.             R_300_29  10.         
    x_0       R_300_30  4.             R_300_31  6.          
    x_1       OBJROW     -12.          R_300_1   2.          
    x_1       R_300_2   6.             R_300_3   4.          
    x_1       R_300_5   10.            R_300_6   5.          
    x_1       R_300_7   2.             R_300_8   3.          
    x_1       R_300_10  4.             R_300_12  1.          
    x_1       R_300_13  6.             R_300_14  1.          
    x_1       R_300_15  2.             R_300_16  1.          
    x_1       R_300_17  3.             R_300_19  3.          
    x_1       R_300_20  1.             R_300_21  1.          
    x_1       R_300_22  4.             R_300_23  1.          
    x_1       R_300_24  10.            R_300_25  2.          
    x_1       R_300_26  8.             R_300_27  8.          
    x_1       R_300_28  10.            R_300_29  5.          
    x_1       R_300_30  10.            R_300_31  8.          
    x_2       OBJROW     -11.          R_300_1   6.          
    x_2       R_300_3   3.             R_300_4   7.          
    x_2       R_300_5   6.             R_300_6   6.          
    x_2       R_300_7   10.            R_300_9   9.          
    x_2       R_300_11  5.             R_300_12  3.          
    x_2       R_300_13  8.             R_300_14  9.          
    x_2       R_300_16  1.             R_300_18  8.          
    x_2       R_300_19  2.             R_300_20  10.         
    x_2       R_300_21  10.            R_300_22  5.          
    x_2       R_300_23  5.             R_300_24  1.          
    x_2       R_300_25  7.             R_300_26  2.          
    x_2       R_300_27  2.             R_300_28  2.          
    x_2       R_300_29  4.             R_300_30  1.          
    x_2       R_300_31  8.          
    x_3       OBJROW     -47.          R_300_0   9.          
    x_3       R_300_1   4.             R_300_2   4.          
    x_3       R_300_3   7.             R_300_4   1.          
    x_3       R_300_5   1.             R_300_8   2.          
    x_3       R_300_9   8.             R_300_10  9.          
    x_3       R_300_12  6.             R_300_13  6.          
    x_3       R_300_14  7.             R_300_15  5.          
    x_3       R_300_16  1.             R_300_18  8.          
    x_3       R_300_19  10.            R_300_20  1.          
    x_3       R_300_21  6.             R_300_22  2.          
    x_3       R_300_23  8.             R_300_24  10.         
    x_3       R_300_25  8.             R_300_26  6.          
    x_3       R_300_27  2.             R_300_28  2.          
    x_3       R_300_29  6.             R_300_30  4.          
    x_3       R_300_31  1.          
    x_4       OBJROW     -22.          R_300_0   8.          
    x_4       R_300_1   8.             R_300_2   8.          
    x_4       R_300_3   6.             R_300_4   9.          
    x_4       R_300_6   7.             R_300_9   4.          
    x_4       R_300_10  10.            R_300_11  7.          
    x_4       R_300_12  2.             R_300_13  10.         
    x_4       R_300_14  6.             R_300_15  9.          
    x_4       R_300_16  7.             R_300_18  1.          
    x_4       R_300_19  5.             R_300_20  6.          
    x_4       R_300_21  9.             R_300_22  3.          
    x_4       R_300_23  7.             R_300_24  9.          
    x_4       R_300_25  9.             R_300_26  3.          
    x_4       R_300_27  4.             R_300_28  6.          
    x_4       R_300_29  10.            R_300_30  8.          
    x_4       R_300_31  1.          
    x_5       OBJROW     -95.          R_300_1   3.          
    x_5       R_300_2   1.             R_300_3   7.          
    x_5       R_300_4   7.             R_300_5   8.          
    x_5       R_300_6   9.             R_300_7   2.          
    x_5       R_300_8   4.             R_300_9   4.          
    x_5       R_300_10  7.             R_300_12  1.          
    x_5       R_300_13  9.             R_300_14  8.          
    x_5       R_300_15  2.             R_300_16  4.          
    x_5       R_300_17  10.            R_300_18  4.          
    x_5       R_300_20  9.             R_300_21  4.          
    x_5       R_300_22  10.            R_300_23  8.          
    x_5       R_300_25  10.            R_300_26  8.          
    x_5       R_300_27  10.            R_300_28  4.          
    x_5       R_300_30  6.             R_300_31  8.          
    x_6       OBJROW     -86.          R_300_0   2.          
    x_6       R_300_1   8.             R_300_4   9.          
    x_6       R_300_5   2.             R_300_6   6.          
    x_6       R_300_7   7.             R_300_8   3.          
    x_6       R_300_9   8.             R_300_10  8.          
    x_6       R_300_11  3.             R_300_12  9.          
    x_6       R_300_13  1.             R_300_14  9.          
    x_6       R_300_16  4.             R_300_18  3.          
    x_6       R_300_19  9.             R_300_20  5.          
    x_6       R_300_21  6.             R_300_22  5.          
    x_6       R_300_23  7.             R_300_24  2.          
    x_6       R_300_25  4.             R_300_26  9.          
    x_6       R_300_28  9.             R_300_29  5.          
    x_6       R_300_30  8.             R_300_31  9.          
    x_7       OBJROW     -40.          R_300_0   2.          
    x_7       R_300_1   7.             R_300_3   6.          
    x_7       R_300_4   8.             R_300_5   8.          
    x_7       R_300_6   5.             R_300_7   3.          
    x_7       R_300_9   4.             R_300_11  2.          
    x_7       R_300_13  6.             R_300_14  3.          
    x_7       R_300_15  4.             R_300_16  9.          
    x_7       R_300_17  7.             R_300_19  5.          
    x_7       R_300_22  6.             R_300_23  5.          
    x_7       R_300_24  2.             R_300_25  7.          
    x_7       R_300_26  5.             R_300_28  8.          
    x_7       R_300_29  3.             R_300_30  7.          
    x_7       R_300_31  1.          
    x_8       OBJROW     -33.          R_300_0   3.          
    x_8       R_300_1   7.             R_300_2   6.          
    x_8       R_300_3   10.            R_300_4   5.          
    x_8       R_300_5   3.             R_300_6   4.          
    x_8       R_300_8   3.             R_300_9   6.          
    x_8       R_300_10  7.             R_300_11  2.          
    x_8       R_300_12  4.             R_300_13  10.         
    x_8       R_300_14  6.             R_300_15  10.         
    x_8       R_300_16  3.             R_300_17  2.          
    x_8       R_300_18  5.             R_300_19  9.          
    x_8       R_300_20  2.             R_300_21  10.         
    x_8       R_300_23  1.             R_300_24  8.          
    x_8       R_300_25  6.             R_300_26  10.         
    x_8       R_300_27  10.            R_300_28  8.          
    x_8       R_300_31  7.          
    x_9       OBJROW     -78.          R_300_0   8.          
    x_9       R_300_1   2.             R_300_2   10.         
    x_9       R_300_3   9.             R_300_5   5.          
    x_9       R_300_6   1.             R_300_7   6.          
    x_9       R_300_8   1.             R_300_9   2.          
    x_9       R_300_10  8.             R_300_11  8.          
    x_9       R_300_12  8.             R_300_13  1.          
    x_9       R_300_14  9.             R_300_15  1.          
    x_9       R_300_16  1.             R_300_18  9.          
    x_9       R_300_20  8.             R_300_21  9.          
    x_9       R_300_22  2.             R_300_23  1.          
    x_9       R_300_24  7.             R_300_25  7.          
    x_9       R_300_27  9.             R_300_28  3.          
    x_9       R_300_29  3.             R_300_30  4.          
    x_9       R_300_31  4.          
    x_10      OBJROW     -28.          R_300_0   7.          
    x_10      R_300_1   3.             R_300_2   5.          
    x_10      R_300_4   8.             R_300_5   9.          
    x_10      R_300_6   5.             R_300_7   3.          
    x_10      R_300_8   2.             R_300_9   9.          
    x_10      R_300_10  4.             R_300_11  10.         
    x_10      R_300_12  3.             R_300_13  5.          
    x_10      R_300_14  8.             R_300_15  4.          
    x_10      R_300_17  1.             R_300_18  2.          
    x_10      R_300_19  9.             R_300_21  2.          
    x_10      R_300_24  5.             R_300_26  6.          
    x_10      R_300_27  5.             R_300_29  2.          
    x_10      R_300_30  7.             R_300_31  1.          
    x_11      OBJROW     -78.          R_300_0   2.          
    x_11      R_300_1   5.             R_300_3   7.          
    x_11      R_300_4   9.             R_300_5   10.         
    x_11      R_300_6   4.             R_300_7   3.          
    x_11      R_300_8   8.             R_300_11  10.         
    x_11      R_300_12  4.             R_300_13  8.          
    x_11      R_300_14  8.             R_300_16  2.          
    x_11      R_300_17  10.            R_300_18  8.          
    x_11      R_300_19  10.            R_300_20  10.         
    x_11      R_300_22  5.             R_300_24  5.          
    x_11      R_300_25  1.             R_300_26  6.          
    x_11      R_300_27  9.             R_300_28  6.          
    x_11      R_300_30  8.          
    x_12      OBJROW     -5.           R_300_0   10.         
    x_12      R_300_1   4.             R_300_2   10.         
    x_12      R_300_3   2.             R_300_4   8.          
    x_12      R_300_6   8.             R_300_7   4.          
    x_12      R_300_8   5.             R_300_11  10.         
    x_12      R_300_12  6.             R_300_13  7.          
    x_12      R_300_14  4.             R_300_15  9.          
    x_12      R_300_16  4.             R_300_17  10.         
    x_12      R_300_18  7.             R_300_19  8.          
    x_12      R_300_20  8.             R_300_22  4.          
    x_12      R_300_23  9.             R_300_24  2.          
    x_12      R_300_25  9.             R_300_26  1.          
    x_12      R_300_27  7.             R_300_28  9.          
    x_12      R_300_29  6.             R_300_30  9.          
    x_13      OBJROW     -75.          R_300_0   2.          
    x_13      R_300_1   4.             R_300_2   1.          
    x_13      R_300_3   3.             R_300_4   4.          
    x_13      R_300_5   9.             R_300_6   3.          
    x_13      R_300_7   2.             R_300_8   9.          
    x_13      R_300_9   3.             R_300_10  3.          
    x_13      R_300_11  9.             R_300_12  8.          
    x_13      R_300_13  9.             R_300_14  6.          
    x_13      R_300_15  2.             R_300_16  2.          
    x_13      R_300_17  6.             R_300_18  5.          
    x_13      R_300_21  3.             R_300_22  6.          
    x_13      R_300_23  1.             R_300_24  9.          
    x_13      R_300_25  2.             R_300_26  9.          
    x_13      R_300_27  7.             R_300_28  4.          
    x_13      R_300_29  3.             R_300_30  1.          
    x_13      R_300_31  6.          
    x_14      OBJROW     -88.          R_300_0   5.          
    x_14      R_300_1   1.             R_300_3   4.          
    x_14      R_300_4   6.             R_300_5   10.         
    x_14      R_300_7   9.             R_300_8   1.          
    x_14      R_300_9   2.             R_300_10  5.          
    x_14      R_300_11  4.             R_300_12  9.          
    x_14      R_300_15  3.             R_300_16  3.          
    x_14      R_300_17  6.             R_300_18  10.         
    x_14      R_300_19  8.             R_300_21  8.          
    x_14      R_300_22  10.            R_300_25  5.          
    x_14      R_300_26  3.             R_300_27  10.         
    x_14      R_300_28  8.             R_300_29  4.          
    x_14      R_300_30  5.             R_300_31  6.          
    x_15      OBJROW     -21.          R_300_0   1.          
    x_15      R_300_2   1.             R_300_3   1.          
    x_15      R_300_5   10.            R_300_6   5.          
    x_15      R_300_7   8.             R_300_8   10.         
    x_15      R_300_9   4.             R_300_10  9.          
    x_15      R_300_11  5.             R_300_13  7.          
    x_15      R_300_14  4.             R_300_15  7.          
    x_15      R_300_16  10.            R_300_17  9.          
    x_15      R_300_18  7.             R_300_19  6.          
    x_15      R_300_21  3.             R_300_22  3.          
    x_15      R_300_23  8.             R_300_24  3.          
    x_15      R_300_25  6.             R_300_26  7.          
    x_15      R_300_27  5.             R_300_28  1.          
    x_15      R_300_29  1.             R_300_30  2.          
    x_15      R_300_31  6.          
    x_16      OBJROW     -56.          R_300_0   6.          
    x_16      R_300_1   3.             R_300_2   6.          
    x_16      R_300_3   9.             R_300_4   7.          
    x_16      R_300_5   4.             R_300_6   2.          
    x_16      R_300_7   6.             R_300_8   8.          
    x_16      R_300_9   1.             R_300_10  7.          
    x_16      R_300_11  10.            R_300_14  10.         
    x_16      R_300_15  10.            R_300_16  6.          
    x_16      R_300_17  7.             R_300_18  8.          
    x_16      R_300_19  5.             R_300_20  4.          
    x_16      R_300_21  4.             R_300_22  6.          
    x_16      R_300_24  4.             R_300_25  10.         
    x_16      R_300_26  10.            R_300_27  7.          
    x_16      R_300_29  9.             R_300_31  8.          
    x_17      OBJROW     -82.          R_300_0   3.          
    x_17      R_300_1   10.            R_300_4   3.          
    x_17      R_300_7   10.            R_300_8   4.          
    x_17      R_300_9   5.             R_300_10  1.          
    x_17      R_300_11  2.             R_300_12  10.         
    x_17      R_300_13  7.             R_300_14  8.          
    x_17      R_300_15  8.             R_300_17  5.          
    x_17      R_300_18  8.             R_300_19  9.          
    x_17      R_300_20  5.             R_300_21  1.          
    x_17      R_300_22  9.             R_300_23  7.          
    x_17      R_300_25  5.             R_300_26  4.          
    x_17      R_300_28  8.             R_300_29  3.          
    x_18      OBJROW     -51.          R_300_0   5.          
    x_18      R_300_2   4.             R_300_3   4.          
    x_18      R_300_4   2.             R_300_5   6.          
    x_18      R_300_6   9.             R_300_10  3.          
    x_18      R_300_11  7.             R_300_12  4.          
    x_18      R_300_13  1.             R_300_14  6.          
    x_18      R_300_15  2.             R_300_17  3.          
    x_18      R_300_19  7.             R_300_20  8.          
    x_18      R_300_21  5.             R_300_22  3.          
    x_18      R_300_24  2.             R_300_26  3.          
    x_18      R_300_28  9.             R_300_29  4.          
    x_18      R_300_30  4.          
    x_19      OBJROW     -93.          R_300_2   4.          
    x_19      R_300_3   1.             R_300_5   8.          
    x_19      R_300_6   6.             R_300_8   2.          
    x_19      R_300_9   1.             R_300_10  7.          
    x_19      R_300_11  4.             R_300_12  10.         
    x_19      R_300_13  2.             R_300_14  10.         
    x_19      R_300_15  3.             R_300_16  10.         
    x_19      R_300_17  2.             R_300_18  6.          
    x_19      R_300_19  4.             R_300_20  8.          
    x_19      R_300_21  8.             R_300_22  4.          
    x_19      R_300_23  2.             R_300_24  10.         
    x_19      R_300_25  5.             R_300_26  4.          
    x_19      R_300_27  4.             R_300_28  3.          
    x_20      OBJROW     -66.          R_300_0   3.          
    x_20      R_300_2   7.             R_300_3   2.          
    x_20      R_300_4   2.             R_300_6   1.          
    x_20      R_300_7   7.             R_300_10  5.          
    x_20      R_300_12  9.             R_300_14  10.         
    x_20      R_300_15  8.             R_300_17  5.          
    x_20      R_300_19  7.             R_300_20  10.         
    x_20      R_300_21  7.             R_300_22  6.          
    x_20      R_300_23  10.            R_300_24  7.          
    x_20      R_300_26  2.             R_300_29  9.          
    x_20      R_300_30  3.          
    x_21      OBJROW     -48.          R_300_0   2.          
    x_21      R_300_1   4.             R_300_2   9.          
    x_21      R_300_4   3.             R_300_6   8.          
    x_21      R_300_7   9.             R_300_8   6.          
    x_21      R_300_9   4.             R_300_11  7.          
    x_21      R_300_12  7.             R_300_13  5.          
    x_21      R_300_14  3.             R_300_15  4.          
    x_21      R_300_18  4.             R_300_19  5.          
    x_21      R_300_20  10.            R_300_21  1.          
    x_21      R_300_22  7.             R_300_23  1.          
    x_21      R_300_24  8.             R_300_25  6.          
    x_21      R_300_27  1.             R_300_28  3.          
    x_21      R_300_29  4.             R_300_30  8.          
    x_21      R_300_31  9.          
    x_22      OBJROW     -70.          R_300_1   6.          
    x_22      R_300_2   4.             R_300_3   8.          
    x_22      R_300_4   5.             R_300_5   3.          
    x_22      R_300_6   1.             R_300_7   2.          
    x_22      R_300_9   1.             R_300_10  4.          
    x_22      R_300_12  9.             R_300_13  10.         
    x_22      R_300_14  6.             R_300_15  1.          
    x_22      R_300_16  1.             R_300_17  9.          
    x_22      R_300_18  1.             R_300_19  2.          
    x_22      R_300_20  10.            R_300_21  6.          
    x_22      R_300_23  3.             R_300_24  4.          
    x_22      R_300_25  3.             R_300_27  9.          
    x_22      R_300_29  2.             R_300_30  4.          
    x_22      R_300_31  4.          
    x_23      OBJROW     -57.          R_300_0   3.          
    x_23      R_300_1   1.             R_300_2   2.          
    x_23      R_300_3   4.             R_300_4   2.          
    x_23      R_300_6   3.             R_300_7   4.          
    x_23      R_300_9   3.             R_300_10  7.          
    x_23      R_300_11  2.             R_300_12  10.         
    x_23      R_300_13  6.             R_300_14  5.          
    x_23      R_300_16  5.             R_300_19  3.          
    x_23      R_300_20  6.             R_300_21  10.         
    x_23      R_300_22  10.            R_300_23  2.          
    x_23      R_300_25  10.            R_300_26  10.         
    x_23      R_300_27  2.             R_300_28  10.         
    x_23      R_300_29  1.             R_300_30  4.          
    x_23      R_300_31  9.          
    x_24      OBJROW     -65.          R_300_0   7.          
    x_24      R_300_2   6.             R_300_3   3.          
    x_24      R_300_4   5.             R_300_5   6.          
    x_24      R_300_7   1.             R_300_8   4.          
    x_24      R_300_9   8.             R_300_11  4.          
    x_24      R_300_12  2.             R_300_13  2.          
    x_24      R_300_14  7.             R_300_15  10.         
    x_24      R_300_16  9.             R_300_18  1.          
    x_24      R_300_19  4.             R_300_21  5.          
    x_24      R_300_22  9.             R_300_24  3.          
    x_24      R_300_25  5.             R_300_26  10.         
    x_24      R_300_27  1.             R_300_29  8.          
    x_24      R_300_30  10.            R_300_31  4.          
    x_25      OBJROW     -35.          R_300_1   2.          
    x_25      R_300_2   5.             R_300_3   2.          
    x_25      R_300_4   4.             R_300_5   5.          
    x_25      R_300_8   10.            R_300_9   6.          
    x_25      R_300_10  10.            R_300_12  8.          
    x_25      R_300_13  8.             R_300_14  6.          
    x_25      R_300_15  1.             R_300_16  7.          
    x_25      R_300_17  4.             R_300_19  1.          
    x_25      R_300_20  9.             R_300_22  8.          
    x_25      R_300_23  7.             R_300_25  3.          
    x_25      R_300_27  2.             R_300_28  5.          
    x_25      R_300_29  3.             R_300_30  7.          
    x_25      R_300_31  1.          
    x_26      OBJROW     -5.           R_300_0   3.          
    x_26      R_300_1   1.             R_300_2   4.          
    x_26      R_300_3   5.             R_300_4   3.          
    x_26      R_300_5   6.             R_300_6   7.          
    x_26      R_300_8   3.             R_300_9   5.          
    x_26      R_300_10  4.             R_300_11  1.          
    x_26      R_300_14  8.             R_300_16  8.          
    x_26      R_300_19  7.             R_300_21  9.          
    x_26      R_300_22  7.             R_300_23  8.          
    x_26      R_300_24  3.             R_300_25  5.          
    x_26      R_300_26  3.             R_300_27  2.          
    x_26      R_300_28  1.             R_300_29  1.          
    x_26      R_300_30  10.            R_300_31  7.          
    x_27      OBJROW     -4.           R_300_0   10.         
    x_27      R_300_1   3.             R_300_2   4.          
    x_27      R_300_3   6.             R_300_4   1.          
    x_27      R_300_8   6.             R_300_9   8.          
    x_27      R_300_10  3.             R_300_11  10.         
    x_27      R_300_12  2.             R_300_13  9.          
    x_27      R_300_14  2.             R_300_15  5.          
    x_27      R_300_16  5.             R_300_17  4.          
    x_27      R_300_18  1.             R_300_19  1.          
    x_27      R_300_20  10.            R_300_22  7.          
    x_27      R_300_23  8.             R_300_25  1.          
    x_27      R_300_26  1.             R_300_28  6.          
    x_27      R_300_29  2.             R_300_31  5.          
    x_28      OBJROW     -47.          R_300_1   2.          
    x_28      R_300_2   5.             R_300_3   3.          
    x_28      R_300_4   8.             R_300_5   9.          
    x_28      R_300_6   10.            R_300_7   10.         
    x_28      R_300_9   7.             R_300_10  2.          
    x_28      R_300_12  2.             R_300_13  8.          
    x_28      R_300_14  10.            R_300_15  7.          
    x_28      R_300_16  10.            R_300_18  8.          
    x_28      R_300_19  8.             R_300_21  7.          
    x_28      R_300_23  2.             R_300_24  5.          
    x_28      R_300_25  5.             R_300_28  5.          
    x_28      R_300_29  4.             R_300_31  9.          
    x_29      OBJROW     -60.          R_300_0   7.          
    x_29      R_300_1   1.             R_300_2   5.          
    x_29      R_300_3   1.             R_300_4   6.          
    x_29      R_300_5   10.            R_300_6   6.          
    x_29      R_300_8   1.             R_300_9   4.          
    x_29      R_300_10  2.             R_300_11  3.          
    x_29      R_300_12  7.             R_300_14  7.          
    x_29      R_300_16  4.             R_300_17  3.          
    x_29      R_300_18  8.             R_300_19  5.          
    x_29      R_300_22  4.             R_300_23  8.          
    x_29      R_300_24  4.             R_300_25  7.          
    x_29      R_300_26  9.             R_300_27  5.          
    x_29      R_300_28  10.            R_300_30  1.          
    x_29      R_300_31  3.          
    x_30      OBJROW     -41.          R_300_1   5.          
    x_30      R_300_3   4.             R_300_4   2.          
    x_30      R_300_5   5.             R_300_6   6.          
    x_30      R_300_7   3.             R_300_9   5.          
    x_30      R_300_10  8.             R_300_11  9.          
    x_30      R_300_12  3.             R_300_13  1.          
    x_30      R_300_15  7.             R_300_16  4.          
    x_30      R_300_17  9.             R_300_18  8.          
    x_30      R_300_19  5.             R_300_20  7.          
    x_30      R_300_21  1.             R_300_22  6.          
    x_30      R_300_23  9.             R_300_25  4.          
    x_30      R_300_26  7.             R_300_27  4.          
    x_30      R_300_29  5.             R_300_30  4.          
    x_30      R_300_31  2.          
    x_31      OBJROW     -49.          R_300_0   9.          
    x_31      R_300_1   8.             R_300_2   9.          
    x_31      R_300_3   1.             R_300_4   6.          
    x_31      R_300_5   3.             R_300_6   5.          
    x_31      R_300_8   10.            R_300_10  9.          
    x_31      R_300_11  8.             R_300_14  3.          
    x_31      R_300_16  2.             R_300_17  6.          
    x_31      R_300_18  5.             R_300_19  5.          
    x_31      R_300_20  2.             R_300_21  7.          
    x_31      R_300_22  10.            R_300_23  8.          
    x_31      R_300_24  4.             R_300_25  9.          
    x_31      R_300_26  4.             R_300_27  8.          
    x_31      R_300_28  5.             R_300_30  9.          
    x_31      R_300_31  10.         
RHS
    RHS       R_300_0   133.           R_300_1   129.        
    RHS       R_300_2   161.           R_300_3   162.        
    RHS       R_300_4   137.           R_300_5   149.        
    RHS       R_300_6   163.           R_300_7   143.        
    RHS       R_300_8   143.           R_300_9   142.        
    RHS       R_300_10  143.           R_300_11  154.        
    RHS       R_300_12  155.           R_300_13  146.        
    RHS       R_300_14  136.           R_300_15  147.        
    RHS       R_300_16  170.           R_300_17  128.        
    RHS       R_300_18  155.           R_300_19  160.        
    RHS       R_300_20  170.           R_300_21  168.        
    RHS       R_300_22  157.           R_300_23  136.        
    RHS       R_300_24  147.           R_300_25  149.        
    RHS       R_300_26  161.           R_300_27  165.        
    RHS       R_300_28  134.           R_300_29  137.        
    RHS       R_300_30  161.           R_300_31  153.        
BOUNDS
 UI BOUND     x_0       100.        
 UI BOUND     x_1       100.        
 UI BOUND     x_2       100.        
 UI BOUND     x_3       100.        
 UI BOUND     x_4       100.        
 UI BOUND     x_5       100.        
 UI BOUND     x_6       100.        
 UI BOUND     x_7       100.        
 UI BOUND     x_8       100.        
 UI BOUND     x_9       100.        
 UI BOUND     x_10      100.        
 UI BOUND     x_11      100.        
 UI BOUND     x_12      100.        
 UI BOUND     x_13      100.        
 UI BOUND     x_14      100.        
 UI BOUND     x_15      100.        
 UI BOUND     x_16      100.        
 UI BOUND     x_17      100.        
 UI BOUND     x_18      100.        
 UI BOUND     x_19      100.        
 UI BOUND     x_20      100.        
 UI BOUND     x_21      100.        
 UI BOUND     x_22      100.        
 UI BOUND     x_23      100.        
 UI BOUND     x_24      100.        
 UI BOUND     x_25      100.        
 UI BOUND     x_26      100.        
 UI BOUND     x_27      100.        
 UI BOUND     x_28      100.        
 UI BOUND     x_29      100.        
 UI BOUND     x_30      100.        
 UI BOUND     x_31      100.        
ENDATA
